benchmarks/VRPTW/TSPTW/solution/n150w60.001.txt.solution
1 57 123 37 130 110 115 129 83 11 140 81 44 112 82 7 29 56 125 32 116 70 40 80 68 69 146 43 22 5 104 84 16 122 86 17 50 20 91 34 108 143 139 9 147 149 18 131 47 105 46 2 118 65 21 58 99 49 51 78 111 102 73 62 76 13 90 137 30 133 15 95 124 119 92 89 26 12 3 60 97 14 25 72 136 27 8 45 101 134 106 98 107 100 103 31 19 148 128 120 39 55 117 35 74 88 53 67 113 54 33 48 79 75 71 87 94 77 96 138 66 142 59 41 52 6 93 126 23 150 145 4 121 38 135 85 141 127 42 64 24 28 109 63 114 36 132 61 10 151 144 
859
